w = 24;
n = 18;
measures = [|5, 16,
|3, 24,
|3, 18,
|4, 12,
|3, 14,
|5, 8,
|3, 12,
|3, 10,
|3, 9,
|3, 8,
|3, 7,
|4, 5,
|3, 6,
|4, 4,
|3, 5,
|3, 4,
|4, 3,
|3, 3,
|];
initial_x = [0, 5, 8, 11, 15, 18, 0, 3, 6, 9, 12, 15, 19, 0, 4, 7, 10, 14];
initial_y = [0, 0, 0, 0, 0, 0, 24, 24, 24, 24, 24, 24, 24, 36, 36, 36, 36, 36];